Route #1: 1 24 52 21 43 67 69 58 72
Route #2: 17 38 56 76 73 32 7 57
Route #3: 75 29 70 37 30 5
Route #4: 47 65 49 63 27 2
Route #5: 8 71 22 34 12 15 51
Route #6: 45 46 31 3 20 54 62
Route #7: 9 74 28 19 4 13 48 39
Route #8: 50 61 33 55 35 59 36 14 41
Route #9: 42 66 60 6 68 10 25 18 16
Route #10: 53 40 64 11 26 44 23 77
Cost 1263